3 
4  56 
5  11 25 32 40 47 55 
6  02 09 17 24 32 39 47 54 
7  02 09 17 24 32 39 47 54 
8  02 09 17 24 32 39 47 54 
9  02 09 17 24 32 39 47 54 
10  02 09 17 24 32 39 47 54 
11  02 09 17 24 32 39 47 54 
12  02 09 17 24 32 39 47 54 
13  02 09 17 24 32 39 47 54 
14  02 09 17 24 31 38 47 54 
15  02 09 17 24 32 39 47 54 
16  02 09 17 24 32 39 47 54 
17  02 09 17 24 32 39 47 54 
18  02 09 17 24 31 38 46 53 
19  00 08 15 23 30 38 45 
20  00 15 30 47 
21  02 17 32 47 
22  02 17 32 
23 
